p cnf 14 64
-1 -12 -14 0
-1 4 -14 0
2 6 -14 0
-3 -7 14 0
-1 10 12 0
-5 -7 13 0
-4 13 14 0
-9 -10 -13 0
4 -5 6 0
6 -11 14 0
9 -10 -13 0
2 -7 9 0
2 -11 -12 0
1 -5 11 0
1 -5 7 0
-2 5 -9 0
-4 6 -8 0
-2 -5 -9 0
5 8 12 0
-2 -5 -11 0
1 -3 9 0
-1 -11 13 0
-2 5 12 0
1 -9 -13 0
-1 -2 -11 0
-8 9 14 0
-2 7 -8 0
7 -8 11 0
11 -12 -13 0
1 -3 4 0
2 8 -12 0
3 -7 -9 0
-1 -7 8 0
-7 8 -10 0
-1 -2 -7 0
4 -11 12 0
-3 -10 -14 0
8 10 12 0
7 8 12 0
-11 12 14 0
-1 6 -8 0
4 11 -13 0
2 4 6 0
8 9 12 0
3 -7 11 0
3 8 -9 0
-3 7 14 0
-2 -7 12 0
-6 -11 14 0
-2 4 7 0
-4 -9 13 0
2 7 -12 0
-1 -4 10 0
1 -4 14 0
2 3 -10 0
1 2 6 0
4 10 13 0
-4 8 13 0
-2 -9 -12 0
-3 4 7 0
8 -11 -13 0
2 -10 -12 0
7 10 12 0
-8 9 12 0
